NAME 
OBJSENSE MAX
ROWS
 N  OBJ
 L  packing[0]
 L  packing[1]
 L  packing[2]
 L  packing[3]
 L  packing[4]
 L  packing[5]
 L  packing[6]
 L  packing[7]
 L  packing[8]
 L  packing[9]
 L  packing[10]
 L  packing[11]
 L  packing[12]
 L  packing[13]
 L  packing[14]
 L  packing[15]
 L  packing[16]
 L  packing[17]
 L  packing[18]
 L  packing[19]
 L  packing[20]
 L  packing[21]
 L  packing[22]
 L  packing[23]
 L  packing[24]
 L  packing[25]
 L  packing[26]
 L  packing[27]
 L  packing[28]
 L  packing[29]
 L  packing[30]
 L  packing[31]
 L  packing[32]
 L  packing[33]
 L  packing[34]
 L  packing[35]
 L  packing[36]
 L  packing[37]
 L  packing[38]
 L  packing[39]
 L  packing[40]
 L  packing[41]
 L  packing[42]
 L  packing[43]
 L  packing[44]
 L  packing[45]
 L  packing[46]
 L  packing[47]
 L  packing[48]
 L  packing[49]
 L  R55     
COLUMNS
    MARKER    'MARKER'                 'INTORG'
    x[1]      OBJ       63
    x[1]      packing[0]  77
    x[1]      packing[2]  44
    x[1]      packing[3]  78
    x[1]      packing[4]  102
    x[1]      packing[5]  126
    x[1]      packing[7]  54
    x[1]      packing[8]  137
    x[1]      packing[9]  2
    x[1]      packing[10]  133
    x[1]      packing[11]  187
    x[1]      packing[14]  110
    x[1]      packing[15]  91
    x[1]      packing[17]  18
    x[1]      packing[18]  5
    x[1]      packing[19]  26
    x[1]      packing[20]  140
    x[1]      packing[22]  172
    x[1]      packing[23]  100
    x[1]      packing[24]  35
    x[1]      packing[26]  181
    x[1]      packing[27]  68
    x[1]      packing[28]  69
    x[1]      packing[29]  34
    x[1]      packing[31]  2
    x[1]      packing[32]  77
    x[1]      packing[33]  45
    x[1]      packing[34]  61
    x[1]      packing[35]  127
    x[1]      packing[36]  6
    x[1]      packing[37]  102
    x[1]      packing[38]  150
    x[1]      packing[39]  128
    x[1]      packing[41]  125
    x[1]      packing[42]  45
    x[1]      packing[46]  15
    x[1]      packing[48]  98
    x[1]      packing[49]  163
    x[2]      OBJ       83
    x[2]      packing[0]  173
    x[2]      packing[2]  29
    x[2]      packing[3]  145
    x[2]      packing[4]  9
    x[2]      packing[6]  107
    x[2]      packing[7]  145
    x[2]      packing[8]  141
    x[2]      packing[9]  151
    x[2]      packing[10]  59
    x[2]      packing[12]  102
    x[2]      packing[14]  24
    x[2]      packing[16]  83
    x[2]      packing[17]  62
    x[2]      packing[19]  28
    x[2]      packing[21]  82
    x[2]      packing[22]  113
    x[2]      packing[23]  119
    x[2]      packing[24]  106
    x[2]      packing[26]  97
    x[2]      packing[28]  153
    x[2]      packing[29]  35
    x[2]      packing[33]  62
    x[2]      packing[34]  25
    x[2]      packing[36]  189
    x[2]      packing[37]  177
    x[2]      packing[39]  74
    x[2]      packing[40]  124
    x[2]      packing[41]  158
    x[2]      packing[43]  134
    x[2]      packing[45]  71
    x[2]      packing[46]  85
    x[2]      packing[48]  87
    x[2]      packing[49]  18
    x[3]      OBJ       46
    x[3]      packing[1]  66
    x[3]      packing[2]  1
    x[3]      packing[3]  28
    x[3]      packing[4]  89
    x[3]      packing[6]  37
    x[3]      packing[7]  191
    x[3]      packing[8]  105
    x[3]      packing[9]  120
    x[3]      packing[13]  148
    x[3]      packing[14]  51
    x[3]      packing[15]  149
    x[3]      packing[16]  80
    x[3]      packing[20]  173
    x[3]      packing[21]  138
    x[3]      packing[23]  170
    x[3]      packing[24]  133
    x[3]      packing[25]  155
    x[3]      packing[26]  13
    x[3]      packing[27]  115
    x[3]      packing[28]  126
    x[3]      packing[29]  85
    x[3]      packing[31]  191
    x[3]      packing[32]  102
    x[3]      packing[33]  41
    x[3]      packing[34]  115
    x[3]      packing[35]  124
    x[3]      packing[36]  127
    x[3]      packing[37]  122
    x[3]      packing[38]  189
    x[3]      packing[39]  140
    x[3]      packing[41]  13
    x[3]      packing[43]  87
    x[3]      packing[44]  157
    x[3]      packing[45]  130
    x[3]      packing[46]  123
    x[3]      packing[47]  184
    x[3]      packing[48]  5
    x[3]      packing[49]  172
    x[4]      OBJ       50
    x[4]      packing[1]  164
    x[4]      packing[3]  102
    x[4]      packing[4]  76
    x[4]      packing[5]  179
    x[4]      packing[7]  30
    x[4]      packing[8]  110
    x[4]      packing[9]  9
    x[4]      packing[10]  29
    x[4]      packing[11]  4
    x[4]      packing[12]  92
    x[4]      packing[13]  41
    x[4]      packing[14]  188
    x[4]      packing[15]  119
    x[4]      packing[16]  51
    x[4]      packing[17]  60
    x[4]      packing[18]  192
    x[4]      packing[19]  14
    x[4]      packing[20]  1
    x[4]      packing[21]  132
    x[4]      packing[22]  194
    x[4]      packing[24]  152
    x[4]      packing[26]  169
    x[4]      packing[27]  36
    x[4]      packing[29]  164
    x[4]      packing[30]  137
    x[4]      packing[31]  132
    x[4]      packing[32]  120
    x[4]      packing[33]  161
    x[4]      packing[34]  163
    x[4]      packing[35]  110
    x[4]      packing[36]  97
    x[4]      packing[37]  37
    x[4]      packing[39]  65
    x[4]      packing[40]  58
    x[4]      packing[41]  172
    x[4]      packing[42]  132
    x[4]      packing[44]  66
    x[4]      packing[45]  136
    x[4]      packing[47]  71
    x[5]      OBJ       119
    x[5]      packing[0]  92
    x[5]      packing[1]  121
    x[5]      packing[3]  175
    x[5]      packing[4]  116
    x[5]      packing[7]  191
    x[5]      packing[10]  114
    x[5]      packing[11]  164
    x[5]      packing[12]  149
    x[5]      packing[14]  47
    x[5]      packing[15]  161
    x[5]      packing[16]  81
    x[5]      packing[18]  5
    x[5]      packing[20]  92
    x[5]      packing[22]  81
    x[5]      packing[23]  148
    x[5]      packing[25]  69
    x[5]      packing[26]  14
    x[5]      packing[27]  151
    x[5]      packing[28]  100
    x[5]      packing[29]  60
    x[5]      packing[31]  177
    x[5]      packing[33]  60
    x[5]      packing[34]  63
    x[5]      packing[35]  135
    x[5]      packing[37]  121
    x[5]      packing[38]  51
    x[5]      packing[39]  146
    x[5]      packing[40]  9
    x[5]      packing[42]  155
    x[5]      packing[43]  4
    x[5]      packing[45]  157
    x[5]      packing[46]  65
    x[5]      packing[48]  11
    x[5]      packing[49]  31
    x[5]      R55       1
    x[6]      OBJ       71
    x[6]      packing[0]  33
    x[6]      packing[1]  7
    x[6]      packing[2]  1
    x[6]      packing[3]  55
    x[6]      packing[5]  53
    x[6]      packing[6]  186
    x[6]      packing[7]  38
    x[6]      packing[8]  138
    x[6]      packing[10]  11
    x[6]      packing[11]  93
    x[6]      packing[12]  105
    x[6]      packing[14]  73
    x[6]      packing[16]  61
    x[6]      packing[18]  153
    x[6]      packing[19]  88
    x[6]      packing[21]  26
    x[6]      packing[23]  79
    x[6]      packing[25]  102
    x[6]      packing[26]  127
    x[6]      packing[27]  57
    x[6]      packing[29]  4
    x[6]      packing[32]  68
    x[6]      packing[34]  2
    x[6]      packing[35]  124
    x[6]      packing[36]  21
    x[6]      packing[39]  104
    x[6]      packing[40]  80
    x[6]      packing[41]  130
    x[6]      packing[42]  33
    x[6]      packing[44]  3
    x[6]      packing[45]  166
    x[6]      packing[47]  167
    x[6]      packing[49]  133
    x[7]      OBJ       169
    x[7]      packing[0]  15
    x[7]      packing[1]  23
    x[7]      packing[2]  70
    x[7]      packing[3]  168
    x[7]      packing[4]  33
    x[7]      packing[5]  86
    x[7]      packing[7]  135
    x[7]      packing[8]  138
    x[7]      packing[9]  10
    x[7]      packing[10]  173
    x[7]      packing[11]  155
    x[7]      packing[12]  156
    x[7]      packing[14]  50
    x[7]      packing[15]  198
    x[7]      packing[16]  68
    x[7]      packing[18]  169
    x[7]      packing[19]  178
    x[7]      packing[20]  68
    x[7]      packing[21]  62
    x[7]      packing[22]  92
    x[7]      packing[24]  178
    x[7]      packing[27]  187
    x[7]      packing[28]  191
    x[7]      packing[29]  179
    x[7]      packing[31]  107
    x[7]      packing[32]  162
    x[7]      packing[33]  95
    x[7]      packing[37]  165
    x[7]      packing[40]  13
    x[7]      packing[41]  23
    x[7]      packing[42]  145
    x[7]      packing[44]  95
    x[7]      packing[46]  70
    x[7]      packing[48]  145
    x[7]      packing[49]  63
    x[7]      R55       1
    x[8]      OBJ       198
    x[8]      packing[0]  106
    x[8]      packing[1]  11
    x[8]      packing[2]  182
    x[8]      packing[4]  144
    x[8]      packing[6]  89
    x[8]      packing[10]  133
    x[8]      packing[11]  61
    x[8]      packing[12]  116
    x[8]      packing[13]  122
    x[8]      packing[14]  97
    x[8]      packing[16]  70
    x[8]      packing[17]  122
    x[8]      packing[18]  105
    x[8]      packing[19]  149
    x[8]      packing[22]  123
    x[8]      packing[23]  74
    x[8]      packing[24]  119
    x[8]      packing[25]  95
    x[8]      packing[26]  150
    x[8]      packing[27]  105
    x[8]      packing[29]  70
    x[8]      packing[30]  61
    x[8]      packing[33]  30
    x[8]      packing[34]  106
    x[8]      packing[35]  59
    x[8]      packing[37]  79
    x[8]      packing[38]  95
    x[8]      packing[40]  156
    x[8]      packing[41]  6
    x[8]      packing[42]  94
    x[8]      packing[44]  181
    x[8]      packing[46]  52
    x[8]      packing[47]  110
    x[8]      packing[48]  27
    x[8]      packing[49]  85
    x[9]      OBJ       36
    x[9]      packing[3]  91
    x[9]      packing[4]  169
    x[9]      packing[5]  14
    x[9]      packing[6]  133
    x[9]      packing[7]  41
    x[9]      packing[8]  2
    x[9]      packing[9]  180
    x[9]      packing[10]  94
    x[9]      packing[12]  12
    x[9]      packing[14]  183
    x[9]      packing[15]  46
    x[9]      packing[17]  189
    x[9]      packing[19]  59
    x[9]      packing[20]  68
    x[9]      packing[21]  34
    x[9]      packing[24]  189
    x[9]      packing[25]  58
    x[9]      packing[27]  87
    x[9]      packing[28]  129
    x[9]      packing[30]  13
    x[9]      packing[31]  176
    x[9]      packing[35]  65
    x[9]      packing[36]  155
    x[9]      packing[38]  154
    x[9]      packing[39]  121
    x[9]      packing[40]  136
    x[9]      packing[42]  60
    x[9]      packing[46]  173
    x[9]      packing[47]  93
    x[9]      packing[48]  14
    x[10]     OBJ       34
    x[10]     packing[0]  48
    x[10]     packing[1]  193
    x[10]     packing[2]  117
    x[10]     packing[4]  110
    x[10]     packing[6]  48
    x[10]     packing[8]  26
    x[10]     packing[9]  85
    x[10]     packing[10]  153
    x[10]     packing[11]  169
    x[10]     packing[12]  72
    x[10]     packing[14]  168
    x[10]     packing[15]  161
    x[10]     packing[16]  72
    x[10]     packing[17]  125
    x[10]     packing[18]  144
    x[10]     packing[19]  158
    x[10]     packing[20]  128
    x[10]     packing[21]  160
    x[10]     packing[22]  156
    x[10]     packing[23]  98
    x[10]     packing[24]  134
    x[10]     packing[26]  53
    x[10]     packing[28]  73
    x[10]     packing[29]  57
    x[10]     packing[30]  70
    x[10]     packing[32]  112
    x[10]     packing[33]  198
    x[10]     packing[34]  124
    x[10]     packing[35]  14
    x[10]     packing[36]  128
    x[10]     packing[41]  86
    x[10]     packing[42]  119
    x[10]     packing[43]  8
    x[10]     packing[44]  39
    x[10]     packing[47]  28
    x[10]     packing[48]  24
    x[10]     packing[49]  81
    x[11]     OBJ       15
    x[11]     packing[0]  41
    x[11]     packing[1]  18
    x[11]     packing[4]  115
    x[11]     packing[5]  176
    x[11]     packing[6]  55
    x[11]     packing[7]  81
    x[11]     packing[8]  36
    x[11]     packing[9]  132
    x[11]     packing[10]  89
    x[11]     packing[11]  78
    x[11]     packing[12]  72
    x[11]     packing[13]  174
    x[11]     packing[14]  91
    x[11]     packing[16]  67
    x[11]     packing[18]  86
    x[11]     packing[20]  165
    x[11]     packing[21]  137
    x[11]     packing[22]  103
    x[11]     packing[25]  156
    x[11]     packing[26]  123
    x[11]     packing[28]  179
    x[11]     packing[29]  189
    x[11]     packing[30]  65
    x[11]     packing[31]  142
    x[11]     packing[32]  16
    x[11]     packing[33]  104
    x[11]     packing[34]  186
    x[11]     packing[35]  174
    x[11]     packing[37]  72
    x[11]     packing[39]  155
    x[11]     packing[44]  189
    x[11]     packing[46]  66
    x[11]     packing[47]  131
    x[11]     packing[48]  31
    x[12]     OBJ       175
    x[12]     packing[0]  164
    x[12]     packing[1]  156
    x[12]     packing[2]  199
    x[12]     packing[3]  65
    x[12]     packing[4]  186
    x[12]     packing[5]  64
    x[12]     packing[6]  77
    x[12]     packing[7]  151
    x[12]     packing[8]  11
    x[12]     packing[11]  26
    x[12]     packing[12]  149
    x[12]     packing[13]  91
    x[12]     packing[14]  23
    x[12]     packing[15]  20
    x[12]     packing[16]  24
    x[12]     packing[18]  194
    x[12]     packing[20]  187
    x[12]     packing[21]  157
    x[12]     packing[22]  81
    x[12]     packing[24]  21
    x[12]     packing[25]  115
    x[12]     packing[26]  162
    x[12]     packing[27]  198
    x[12]     packing[28]  164
    x[12]     packing[30]  193
    x[12]     packing[32]  5
    x[12]     packing[33]  59
    x[12]     packing[34]  151
    x[12]     packing[36]  162
    x[12]     packing[37]  151
    x[12]     packing[39]  37
    x[12]     packing[40]  52
    x[12]     packing[41]  29
    x[12]     packing[43]  181
    x[12]     packing[44]  150
    x[12]     packing[45]  84
    x[12]     packing[46]  40
    x[12]     packing[49]  37
    x[13]     OBJ       173
    x[13]     packing[1]  139
    x[13]     packing[2]  84
    x[13]     packing[3]  166
    x[13]     packing[4]  74
    x[13]     packing[5]  68
    x[13]     packing[6]  117
    x[13]     packing[7]  7
    x[13]     packing[8]  84
    x[13]     packing[9]  155
    x[13]     packing[10]  98
    x[13]     packing[11]  132
    x[13]     packing[12]  13
    x[13]     packing[13]  74
    x[13]     packing[14]  110
    x[13]     packing[15]  113
    x[13]     packing[16]  44
    x[13]     packing[17]  57
    x[13]     packing[18]  106
    x[13]     packing[19]  2
    x[13]     packing[20]  88
    x[13]     packing[21]  112
    x[13]     packing[22]  133
    x[13]     packing[23]  184
    x[13]     packing[24]  61
    x[13]     packing[26]  33
    x[13]     packing[27]  147
    x[13]     packing[29]  192
    x[13]     packing[31]  195
    x[13]     packing[32]  3
    x[13]     packing[34]  82
    x[13]     packing[35]  37
    x[13]     packing[37]  149
    x[13]     packing[38]  35
    x[13]     packing[39]  101
    x[13]     packing[42]  110
    x[13]     packing[45]  148
    x[13]     packing[46]  125
    x[13]     packing[47]  129
    x[13]     packing[48]  175
    x[13]     R55       1
    x[14]     OBJ       154
    x[14]     packing[1]  147
    x[14]     packing[2]  94
    x[14]     packing[3]  100
    x[14]     packing[6]  193
    x[14]     packing[8]  87
    x[14]     packing[9]  73
    x[14]     packing[11]  184
    x[14]     packing[12]  6
    x[14]     packing[13]  119
    x[14]     packing[14]  172
    x[14]     packing[15]  55
    x[14]     packing[16]  196
    x[14]     packing[17]  5
    x[14]     packing[18]  115
    x[14]     packing[19]  23
    x[14]     packing[20]  124
    x[14]     packing[21]  182
    x[14]     packing[22]  160
    x[14]     packing[23]  34
    x[14]     packing[24]  182
    x[14]     packing[25]  80
    x[14]     packing[26]  60
    x[14]     packing[29]  121
    x[14]     packing[31]  196
    x[14]     packing[33]  108
    x[14]     packing[34]  149
    x[14]     packing[35]  195
    x[14]     packing[36]  46
    x[14]     packing[37]  48
    x[14]     packing[38]  84
    x[14]     packing[39]  124
    x[14]     packing[40]  60
    x[14]     packing[41]  139
    x[14]     packing[42]  130
    x[14]     packing[43]  16
    x[14]     packing[44]  83
    x[14]     packing[46]  34
    x[14]     packing[48]  20
    x[14]     packing[49]  185
    x[14]     R55       1
    x[15]     OBJ       119
    x[15]     packing[0]  157
    x[15]     packing[1]  146
    x[15]     packing[2]  93
    x[15]     packing[4]  71
    x[15]     packing[5]  54
    x[15]     packing[6]  189
    x[15]     packing[7]  191
    x[15]     packing[8]  187
    x[15]     packing[9]  8
    x[15]     packing[10]  110
    x[15]     packing[11]  90
    x[15]     packing[12]  22
    x[15]     packing[13]  103
    x[15]     packing[14]  149
    x[15]     packing[15]  109
    x[15]     packing[16]  129
    x[15]     packing[17]  167
    x[15]     packing[18]  184
    x[15]     packing[19]  121
    x[15]     packing[20]  152
    x[15]     packing[22]  177
    x[15]     packing[23]  176
    x[15]     packing[25]  17
    x[15]     packing[26]  197
    x[15]     packing[27]  168
    x[15]     packing[28]  73
    x[15]     packing[30]  111
    x[15]     packing[31]  172
    x[15]     packing[32]  24
    x[15]     packing[33]  32
    x[15]     packing[34]  52
    x[15]     packing[35]  121
    x[15]     packing[36]  177
    x[15]     packing[37]  93
    x[15]     packing[39]  123
    x[15]     packing[40]  99
    x[15]     packing[41]  163
    x[15]     packing[42]  71
    x[15]     packing[43]  44
    x[15]     packing[44]  44
    x[15]     packing[45]  24
    x[15]     packing[48]  96
    x[15]     packing[49]  28
    x[16]     OBJ       115
    x[16]     packing[0]  130
    x[16]     packing[1]  198
    x[16]     packing[2]  71
    x[16]     packing[3]  12
    x[16]     packing[4]  120
    x[16]     packing[6]  40
    x[16]     packing[8]  37
    x[16]     packing[10]  122
    x[16]     packing[11]  119
    x[16]     packing[12]  64
    x[16]     packing[13]  187
    x[16]     packing[14]  94
    x[16]     packing[15]  137
    x[16]     packing[16]  172
    x[16]     packing[17]  91
    x[16]     packing[18]  64
    x[16]     packing[20]  141
    x[16]     packing[23]  140
    x[16]     packing[24]  3
    x[16]     packing[25]  45
    x[16]     packing[26]  57
    x[16]     packing[28]  194
    x[16]     packing[30]  1
    x[16]     packing[31]  28
    x[16]     packing[32]  103
    x[16]     packing[33]  120
    x[16]     packing[34]  23
    x[16]     packing[35]  149
    x[16]     packing[36]  107
    x[16]     packing[37]  90
    x[16]     packing[38]  67
    x[16]     packing[40]  132
    x[16]     packing[41]  65
    x[16]     packing[44]  107
    x[16]     packing[45]  60
    x[16]     packing[46]  162
    x[16]     packing[47]  101
    x[16]     packing[48]  104
    x[16]     packing[49]  165
    x[17]     OBJ       144
    x[17]     packing[0]  174
    x[17]     packing[1]  171
    x[17]     packing[2]  104
    x[17]     packing[3]  104
    x[17]     packing[4]  163
    x[17]     packing[5]  158
    x[17]     packing[6]  43
    x[17]     packing[7]  149
    x[17]     packing[8]  187
    x[17]     packing[9]  109
    x[17]     packing[10]  146
    x[17]     packing[11]  48
    x[17]     packing[12]  18
    x[17]     packing[13]  111
    x[17]     packing[15]  25
    x[17]     packing[16]  36
    x[17]     packing[17]  46
    x[17]     packing[18]  108
    x[17]     packing[22]  64
    x[17]     packing[23]  158
    x[17]     packing[24]  62
    x[17]     packing[25]  55
    x[17]     packing[28]  50
    x[17]     packing[29]  79
    x[17]     packing[30]  123
    x[17]     packing[31]  109
    x[17]     packing[32]  112
    x[17]     packing[33]  24
    x[17]     packing[34]  77
    x[17]     packing[35]  168
    x[17]     packing[37]  13
    x[17]     packing[40]  51
    x[17]     packing[41]  133
    x[17]     packing[43]  94
    x[17]     packing[45]  139
    x[17]     packing[46]  39
    x[17]     packing[47]  50
    x[17]     packing[48]  122
    x[17]     packing[49]  69
    x[17]     R55       1
    x[18]     OBJ       200
    x[18]     packing[1]  19
    x[18]     packing[3]  3
    x[18]     packing[5]  11
    x[18]     packing[6]  60
    x[18]     packing[7]  150
    x[18]     packing[8]  173
    x[18]     packing[9]  150
    x[18]     packing[10]  114
    x[18]     packing[11]  42
    x[18]     packing[12]  109
    x[18]     packing[14]  165
    x[18]     packing[15]  160
    x[18]     packing[17]  3
    x[18]     packing[18]  35
    x[18]     packing[20]  158
    x[18]     packing[22]  134
    x[18]     packing[23]  56
    x[18]     packing[24]  132
    x[18]     packing[25]  22
    x[18]     packing[26]  70
    x[18]     packing[27]  17
    x[18]     packing[28]  145
    x[18]     packing[29]  116
    x[18]     packing[30]  23
    x[18]     packing[31]  198
    x[18]     packing[33]  143
    x[18]     packing[34]  53
    x[18]     packing[35]  30
    x[18]     packing[37]  194
    x[18]     packing[38]  176
    x[18]     packing[39]  194
    x[18]     packing[41]  158
    x[18]     packing[42]  98
    x[18]     packing[43]  89
    x[18]     packing[44]  172
    x[18]     packing[46]  155
    x[18]     packing[47]  143
    x[18]     packing[49]  68
    x[18]     R55       1
    x[19]     OBJ       106
    x[19]     packing[0]  157
    x[19]     packing[1]  67
    x[19]     packing[2]  1
    x[19]     packing[3]  150
    x[19]     packing[4]  137
    x[19]     packing[5]  123
    x[19]     packing[6]  134
    x[19]     packing[7]  99
    x[19]     packing[8]  15
    x[19]     packing[9]  135
    x[19]     packing[10]  51
    x[19]     packing[11]  16
    x[19]     packing[12]  126
    x[19]     packing[13]  5
    x[19]     packing[17]  105
    x[19]     packing[18]  176
    x[19]     packing[19]  93
    x[19]     packing[21]  81
    x[19]     packing[22]  86
    x[19]     packing[24]  83
    x[19]     packing[25]  185
    x[19]     packing[26]  134
    x[19]     packing[27]  173
    x[19]     packing[29]  7
    x[19]     packing[31]  27
    x[19]     packing[32]  81
    x[19]     packing[33]  47
    x[19]     packing[34]  59
    x[19]     packing[35]  20
    x[19]     packing[36]  154
    x[19]     packing[38]  187
    x[19]     packing[39]  129
    x[19]     packing[40]  19
    x[19]     packing[41]  196
    x[19]     packing[42]  184
    x[19]     packing[43]  25
    x[19]     packing[44]  65
    x[19]     packing[45]  16
    x[19]     packing[46]  65
    x[19]     packing[47]  129
    x[19]     packing[48]  42
    x[19]     packing[49]  86
    x[20]     OBJ       102
    x[20]     packing[0]  81
    x[20]     packing[2]  186
    x[20]     packing[3]  150
    x[20]     packing[5]  102
    x[20]     packing[8]  143
    x[20]     packing[9]  143
    x[20]     packing[10]  138
    x[20]     packing[11]  180
    x[20]     packing[12]  19
    x[20]     packing[13]  39
    x[20]     packing[14]  166
    x[20]     packing[15]  19
    x[20]     packing[16]  38
    x[20]     packing[17]  135
    x[20]     packing[18]  166
    x[20]     packing[20]  100
    x[20]     packing[21]  153
    x[20]     packing[22]  102
    x[20]     packing[23]  93
    x[20]     packing[25]  118
    x[20]     packing[26]  92
    x[20]     packing[27]  124
    x[20]     packing[28]  126
    x[20]     packing[30]  67
    x[20]     packing[32]  71
    x[20]     packing[33]  53
    x[20]     packing[34]  82
    x[20]     packing[35]  135
    x[20]     packing[36]  21
    x[20]     packing[37]  65
    x[20]     packing[38]  193
    x[20]     packing[39]  4
    x[20]     packing[40]  29
    x[20]     packing[41]  157
    x[20]     packing[42]  185
    x[20]     packing[43]  137
    x[20]     packing[44]  89
    x[20]     packing[45]  106
    x[20]     packing[46]  121
    x[20]     packing[49]  28
    MARKER    'MARKER'                 'INTEND'
RHS
    RHS1      packing[0]  724
    RHS1      packing[1]  823
    RHS1      packing[2]  638
    RHS1      packing[3]  796
    RHS1      packing[4]  857
    RHS1      packing[5]  607
    RHS1      packing[6]  754
    RHS1      packing[7]  827
    RHS1      packing[8]  879
    RHS1      packing[9]  731
    RHS1      packing[10]  884
    RHS1      packing[11]  874
    RHS1      packing[12]  701
    RHS1      packing[13]  607
    RHS1      packing[14]  981
    RHS1      packing[15]  782
    RHS1      packing[16]  636
    RHS1      packing[17]  593
    RHS1      packing[18]  1004
    RHS1      packing[19]  470
    RHS1      packing[20]  893
    RHS1      packing[21]  728
    RHS1      packing[22]  986
    RHS1      packing[23]  815
    RHS1      packing[24]  795
    RHS1      packing[25]  636
    RHS1      packing[26]  866
    RHS1      packing[27]  817
    RHS1      packing[28]  886
    RHS1      packing[29]  696
    RHS1      packing[30]  432
    RHS1      packing[31]  926
    RHS1      packing[32]  528
    RHS1      packing[33]  691
    RHS1      packing[34]  787
    RHS1      packing[35]  894
    RHS1      packing[36]  695
    RHS1      packing[37]  839
    RHS1      packing[38]  691
    RHS1      packing[39]  823
    RHS1      packing[40]  509
    RHS1      packing[41]  877
    RHS1      packing[42]  781
    RHS1      packing[43]  410
    RHS1      packing[44]  720
    RHS1      packing[45]  619
    RHS1      packing[46]  695
    RHS1      packing[47]  668
    RHS1      packing[48]  501
    RHS1      packing[49]  706
    RHS1      R55       5
BOUNDS
 BV BND1      x[1]    
 BV BND1      x[2]    
 BV BND1      x[3]    
 BV BND1      x[4]    
 BV BND1      x[5]    
 BV BND1      x[6]    
 BV BND1      x[7]    
 BV BND1      x[8]    
 BV BND1      x[9]    
 BV BND1      x[10]   
 BV BND1      x[11]   
 BV BND1      x[12]   
 BV BND1      x[13]   
 BV BND1      x[14]   
 BV BND1      x[15]   
 BV BND1      x[16]   
 BV BND1      x[17]   
 BV BND1      x[18]   
 BV BND1      x[19]   
 BV BND1      x[20]   
ENDATA
